48075
1 1 1 0 1 0 1 1 1 1 1 1 1 0 0 1 0 0 0 1 0 0 1 0 0 1 0 1 0 0 
7 19 6 27 2 12 2 27 11 11 4 22 10 1 6 7 1 10 11 22 7 0 1 22 10 22 27 19 6 15 19 19 4 22 27 6 8 8 15 15 7 9 12 4 8 19 6 15 19 10 22 22 0 15 8 12 25 9 7 7 4 0 7 8 8 11 0 9 19 25 7 12 19 9 22 1 9 9 8 22 10 22 9 25 4 9 4 2 27 25 11 19 25 25 0 1 11 12 0 6 11 15 25 7 4 0 4 27 22 6 19 4 27 12 12 8 27 7 22 8 9 7 11 19 9 22 2 12 4 0 11 22 25 10 1 8 1 9 11 22 12 27 12 25 25 6 15 15 27 25 15 0 1 0 8 11 2 15 6 6 1 27 10 2 10 27 1 4 1 22 1 8 6 9 4 2 0 10 9 10 22 15 2 6 25 8 11 10 22 2 2 22 11 4 7 12 7 22 10 19 